SCIP version 5.0.0 [precision: 8 byte] [memory: block] [mode: optimized] [LP solver: NONE] [GitHash: 3bbd232]
Copyright (C) 2002-2017 Konrad-Zuse-Zentrum fuer Informationstechnik Berlin (ZIB)

External codes: 
  Readline EditLine w  GNU library for command line editing (gnu.org/s/readline)
  CppAD 20160000.1     Algorithmic Differentiation of C++ algorithms developed by B. Bell (www.coin-or.org/CppAD)
  ZLIB 1.2.5           General purpose compression library by J. Gailly and M. Adler (zlib.net)
  GMP 6.1.2            GNU Multiple Precision Arithmetic Library developed by T. Granlund (gmplib.org)

user parameter file <scip.set> not found - using default parameters

read problem <../../Split_data/output/biodeg/8/0_sample_biodeg.logreg>
============

File name	:	../../Split_data/output/biodeg/8/0_sample_biodeg.logreg
Problem name 	:	0_sample_biodeg
Number of data	:	844
Number of var	:	41
The given data has linear dependence
1 sets of column vector are linearly dependent:
{ 19}, 

[dim=1] time: 0.026403
[dim=2] time: 0.061885
[dim=3] time: 0.096883
[dim=4] time: 0.127767
[dim=5] time: 0.162282
[dim=6] time: 0.191215
[dim=7] time: 0.220538
[dim=8] time: 0.247983
[dim=9] time: 0.281101
[dim=10] time: 0.306832
[dim=11] time: 0.333338
[dim=12] time: 0.36018
[dim=13] time: 0.390455
[dim=14] time: 0.41653
[dim=15] time: 0.440673
[dim=16] time: 0.45823
[dim=17] time: 0.475186
[dim=18] time: 0.491239
[dim=19] time: 0.510009
[dim=20] time: 0.524024
[dim=21] time: 0.539026
[dim=22] time: 0.554301
[dim=23] time: 0.569595
[dim=24] time: 0.583359
[dim=25] time: 0.597564
[dim=26] time: 0.610531
[dim=27] Time of forward = 0.623793sec.
AIC: 533.683
k: 26

[dim=40] time: 0.134226
[dim=39] time: 0.187469
[dim=38] time: 0.23111
[dim=37] time: 0.283807
[dim=36] time: 0.340514
[dim=35] time: 0.393164
[dim=34] time: 0.465297
[dim=33] time: 0.50752
[dim=32] time: 0.553834
[dim=31] time: 0.592315
[dim=30] time: 0.631472
[dim=29] time: 0.6698
[dim=28] time: 0.701975
[dim=27] time: 0.733473
[dim=26] time: 0.761744
[dim=25] time: 0.796228
[dim=24] time: 0.81994
[dim=23] Time of backward = 0.8549sec.
AIC: 529.443
k: 24
